Route #1: 1 19 42 34 53 20 8 30 28 38 16 47 21 1
Route #2: 1 15 48 24 40 51 56 36 59 1
Route #3: 1 17 26 4 41 12 22 5 29 1
Route #4: 1 39 60 9 14 27 1
Route #5: 1 3 25 35 7 31 54 50 2 1
Route #6: 1 45 43 46 6 33 1
Route #7: 1 32 55 11 23 49 37 1
Route #8: 1 10 52 13 57 44 1
Route #9: 1 18 58 1
cost 1716
